# Created by charmm2lammps v1.9.2 on Tue Jun 21 21:31:29 EDT 2022
# Command: charmm2lammps.pl go1pgb go

units           real
neigh_modify    delay 2 every 1

atom_style      full
bond_style      harmonic
angle_style     harmonic
dihedral_style  fourier

variable	econv equal 0.239
variable	dconv equal 10
variable	epNC equal 0.000132
variable	e equal 0.97
# e is the value which all pair interactions are scaled. 1.0 should replicate the Best paper.

pair_style      lj/eten 15
pair_modify	mix arithmetic
read_data       ../new_data_file.lammps

pair_coeff      1 1 $(v_econv*1.696382e-05*v_dconv^12) $(v_econv*6.434880e-05*v_dconv^10) $(v_econv*1.073256e-04*v_dconv^6)
pair_coeff      1 2 $(v_econv*5.782443e-05*v_dconv^12) $(v_econv*1.787984e-04*v_dconv^10) $(v_econv*1.981514e-04*v_dconv^6)
pair_coeff      1 3 $(v_econv*2.766371e-05*v_dconv^12) $(v_econv*9.672293e-05*v_dconv^10) $(v_econv*1.370556e-04*v_dconv^6)
pair_coeff      1 4 $(v_econv*2.982254e-04*v_dconv^12) $(v_econv*7.015490e-04*v_dconv^10) $(v_econv*4.500013e-04*v_dconv^6)
pair_coeff      1 5 $(v_econv*1.793097e-05*v_dconv^12) $(v_econv*6.739183e-05*v_dconv^10) $(v_econv*1.103426e-04*v_dconv^6)
pair_coeff      1 6 $(v_econv*1.751592e-04*v_dconv^12) $(v_econv*4.502615e-04*v_dconv^10) $(v_econv*3.448720e-04*v_dconv^6)
pair_coeff      1 7 $(v_econv*3.646512e-05*v_dconv^12) $(v_econv*1.217593e-04*v_dconv^10) $(v_econv*1.573549e-04*v_dconv^6)
pair_coeff      1 8 $(v_econv*7.011698e-05*v_dconv^12) $(v_econv*2.099537e-04*v_dconv^10) $(v_econv*2.181992e-04*v_dconv^6)
pair_coeff      1 9 $(v_econv*6.997099e-06*v_dconv^12) $(v_econv*3.076350e-05*v_dconv^10) $(v_econv*6.892876e-05*v_dconv^6)
pair_coeff      1 10 $(v_econv*2.269478e-04*v_dconv^12) $(v_econv*5.587391e-04*v_dconv^10) $(v_econv*3.925585e-04*v_dconv^6)
pair_coeff      1 11 $(v_econv*2.438479e-04*v_dconv^12) $(v_econv*5.932030e-04*v_dconv^10) $(v_econv*4.069125e-04*v_dconv^6)
pair_coeff      1 12 $(v_econv*7.011698e-05*v_dconv^12) $(v_econv*2.099537e-04*v_dconv^10) $(v_econv*2.181992e-04*v_dconv^6)
pair_coeff      1 13 $(v_econv*2.683733e-05*v_dconv^12) $(v_econv*9.430908e-05*v_dconv^10) $(v_econv*1.349930e-04*v_dconv^6)
pair_coeff      1 14 $(v_econv*3.241196e-04*v_dconv^12) $(v_econv*7.519549e-04*v_dconv^10) $(v_econv*4.691309e-04*v_dconv^6)
pair_coeff      1 15 $(v_econv*5.194238e-04*v_dconv^12) $(v_econv*1.113967e-03*v_dconv^10) $(v_econv*5.938851e-04*v_dconv^6)
pair_coeff      1 16 $(v_econv*3.757811e-04*v_dconv^12) $(v_econv*8.505826e-04*v_dconv^10) $(v_econv*5.051367e-04*v_dconv^6)
pair_coeff      1 17 $(v_econv*5.047042e-04*v_dconv^12) $(v_econv*1.087597e-03*v_dconv^10) $(v_econv*5.854097e-04*v_dconv^6)
pair_coeff      1 18 $(v_econv*2.847917e-04*v_dconv^12) $(v_econv*6.751136e-04*v_dconv^10) $(v_econv*4.397493e-04*v_dconv^6)
pair_coeff      1 19 $(v_econv*1.696382e-05*v_dconv^12) $(v_econv*6.434880e-05*v_dconv^10) $(v_econv*1.073256e-04*v_dconv^6)
pair_coeff      1 20 $(v_econv*7.459536e-02*v_dconv^12) $(v_econv*3.303040e-01*v_dconv^10) $(v_econv*7.506667e-01*v_dconv^6)
pair_coeff      1 21 $(v_econv*3.466162e-05*v_dconv^12) $(v_econv*1.167199e-04*v_dconv^10) $(v_econv*1.534143e-04*v_dconv^6)
pair_coeff      1 22 $(v_econv*1.013174e-04*v_dconv^12) $(v_econv*2.853256e-04*v_dconv^10) $(v_econv*2.622911e-04*v_dconv^6)
pair_coeff      1 23 $(v_econv*2.113083e-04*v_dconv^12) $(v_econv*5.264630e-04*v_dconv^10) $(v_econv*3.787911e-04*v_dconv^6)
pair_coeff      1 24 $(v_econv*4.245530e-04*v_dconv^12) $(v_econv*9.416309e-04*v_dconv^10) $(v_econv*5.369173e-04*v_dconv^6)
pair_coeff      1 25 $(v_econv*4.402721e-04*v_dconv^12) $(v_econv*9.705959e-04*v_dconv^10) $(v_econv*5.467667e-04*v_dconv^6)
pair_coeff      1 26 $(v_econv*1.257205e-04*v_dconv^12) $(v_econv*3.415408e-04*v_dconv^10) $(v_econv*2.921760e-04*v_dconv^6)
pair_coeff      1 27 $(v_econv*4.515928e-04*v_dconv^12) $(v_econv*9.913491e-04*v_dconv^10) $(v_econv*5.537516e-04*v_dconv^6)
pair_coeff      1 28 $(v_econv*3.961762e-04*v_dconv^12) $(v_econv*8.888827e-04*v_dconv^10) $(v_econv*5.186635e-04*v_dconv^6)
pair_coeff      1 29 $(v_econv*3.224416e-04*v_dconv^12) $(v_econv*7.487094e-04*v_dconv^10) $(v_econv*4.679150e-04*v_dconv^6)
pair_coeff      1 30 $(v_econv*3.387363e-04*v_dconv^12) $(v_econv*7.801095e-04*v_dconv^10) $(v_econv*4.795925e-04*v_dconv^6)
pair_coeff      1 31 $(v_econv*3.625670e-04*v_dconv^12) $(v_econv*8.255835e-04*v_dconv^10) $(v_econv*4.961758e-04*v_dconv^6)
pair_coeff      1 32 $(v_econv*9.902076e-04*v_dconv^12) $(v_econv*1.907111e-03*v_dconv^10) $(v_econv*8.199825e-04*v_dconv^6)
pair_coeff      1 33 $(v_econv*4.192789e-04*v_dconv^12) $(v_econv*9.318727e-04*v_dconv^10) $(v_econv*5.335719e-04*v_dconv^6)
pair_coeff      1 34 $(v_econv*2.895309e-04*v_dconv^12) $(v_econv*6.844627e-04*v_dconv^10) $(v_econv*4.433930e-04*v_dconv^6)
pair_coeff      1 35 $(v_econv*7.001034e-05*v_dconv^12) $(v_econv*2.096875e-04*v_dconv^10) $(v_econv*2.180332e-04*v_dconv^6)
pair_coeff      1 36 $(v_econv*3.625670e-04*v_dconv^12) $(v_econv*8.255835e-04*v_dconv^10) $(v_econv*4.961758e-04*v_dconv^6)
pair_coeff      1 37 $(v_econv*7.645743e-04*v_dconv^12) $(v_econv*1.537401e-03*v_dconv^10) $(v_econv*7.205287e-04*v_dconv^6)
pair_coeff      1 38 $(v_econv*4.662584e-04*v_dconv^12) $(v_econv*1.018106e-03*v_dconv^10) $(v_econv*5.626713e-04*v_dconv^6)
pair_coeff      1 39 $(v_econv*3.438665e-05*v_dconv^12) $(v_econv*1.159477e-04*v_dconv^10) $(v_econv*1.528046e-04*v_dconv^6)
pair_coeff      1 40 $(v_econv*7.001034e-05*v_dconv^12) $(v_econv*2.096875e-04*v_dconv^10) $(v_econv*2.180332e-04*v_dconv^6)
pair_coeff      1 41 $(v_econv*4.266304e-06*v_dconv^12) $(v_econv*2.036951e-05*v_dconv^10) $(v_econv*5.382293e-05*v_dconv^6)
pair_coeff      1 42 $(v_econv*2.318321e-04*v_dconv^12) $(v_econv*5.687421e-04*v_dconv^10) $(v_econv*3.967603e-04*v_dconv^6)
pair_coeff      1 43 $(v_econv*6.809794e-04*v_dconv^12) $(v_econv*1.395990e-03*v_dconv^10) $(v_econv*6.799992e-04*v_dconv^6)
pair_coeff      1 44 $(v_econv*2.916157e-04*v_dconv^12) $(v_econv*6.885676e-04*v_dconv^10) $(v_econv*4.449866e-04*v_dconv^6)
pair_coeff      1 45 $(v_econv*4.515928e-04*v_dconv^12) $(v_econv*9.913491e-04*v_dconv^10) $(v_econv*5.537516e-04*v_dconv^6)
pair_coeff      1 46 $(v_econv*4.380596e-04*v_dconv^12) $(v_econv*9.665294e-04*v_dconv^10) $(v_econv*5.453911e-04*v_dconv^6)
pair_coeff      1 47 $(v_econv*2.823789e-04*v_dconv^12) $(v_econv*6.703438e-04*v_dconv^10) $(v_econv*4.378825e-04*v_dconv^6)
pair_coeff      1 48 $(v_econv*2.225735e-03*v_dconv^12) $(v_econv*3.745403e-03*v_dconv^10) $(v_econv*1.229357e-03*v_dconv^6)
pair_coeff      1 49 $(v_econv*2.750493e-04*v_dconv^12) $(v_econv*6.558122e-04*v_dconv^10) $(v_econv*4.321621e-04*v_dconv^6)
pair_coeff      1 50 $(v_econv*7.461022e+00*v_dconv^12) $(v_econv*1.310943e+01*v_dconv^10) $(v_econv*4.691198e+00*v_dconv^6)
pair_coeff      1 51 $(v_econv*2.481758e-05*v_dconv^12) $(v_econv*8.835620e-05*v_dconv^10) $(v_econv*1.298139e-04*v_dconv^6)
pair_coeff      1 52 $(v_econv*4.250546e-04*v_dconv^12) $(v_econv*9.425579e-04*v_dconv^10) $(v_econv*5.372344e-04*v_dconv^6)
pair_coeff      1 53 $(v_econv*1.793097e-05*v_dconv^12) $(v_econv*6.739183e-05*v_dconv^10) $(v_econv*1.103426e-04*v_dconv^6)
pair_coeff      1 54 $(v_econv*2.249876e-05*v_dconv^12) $(v_econv*8.142097e-05*v_dconv^10) $(v_econv*1.236007e-04*v_dconv^6)
pair_coeff      1 55 $(v_econv*1.784736e-05*v_dconv^12) $(v_econv*6.712985e-05*v_dconv^10) $(v_econv*1.100851e-04*v_dconv^6)
pair_coeff      1 56 $(v_econv*4.266304e-06*v_dconv^12) $(v_econv*2.036951e-05*v_dconv^10) $(v_econv*5.382293e-05*v_dconv^6)
pair_coeff      2 2 $(v_econv*1.759069e-04*v_dconv^12) $(v_econv*4.518627e-04*v_dconv^10) $(v_econv*3.456073e-04*v_dconv^6)
pair_coeff      2 3 $(v_econv*8.999972e-05*v_dconv^12) $(v_econv*2.585067e-04*v_dconv^10) $(v_econv*2.472077e-04*v_dconv^6)
pair_coeff      2 4 $(v_econv*7.914441e-04*v_dconv^12) $(v_econv*1.582296e-03*v_dconv^10) $(v_econv*7.330803e-04*v_dconv^6)
pair_coeff      2 5 $(v_econv*6.079350e-05*v_dconv^12) $(v_econv*1.864168e-04*v_dconv^10) $(v_econv*2.031749e-04*v_dconv^6)
pair_coeff      2 6 $(v_econv*4.849927e-04*v_dconv^12) $(v_econv*1.052083e-03*v_dconv^10) $(v_econv*5.738641e-04*v_dconv^6)
pair_coeff      2 7 $(v_econv*1.156358e-04*v_dconv^12) $(v_econv*3.185525e-04*v_dconv^10) $(v_econv*2.802126e-04*v_dconv^6)
pair_coeff      2 8 $(v_econv*2.097184e-04*v_dconv^12) $(v_econv*5.231600e-04*v_dconv^10) $(v_econv*3.773634e-04*v_dconv^6)
pair_coeff      2 9 $(v_econv*2.606983e-05*v_dconv^12) $(v_econv*9.205611e-05*v_dconv^10) $(v_econv*1.330487e-04*v_dconv^6)
pair_coeff      2 10 $(v_econv*6.154109e-04*v_dconv^12) $(v_econv*1.283045e-03*v_dconv^10) $(v_econv*6.464338e-04*v_dconv^6)
pair_coeff      2 11 $(v_econv*6.574714e-04*v_dconv^12) $(v_econv*1.355714e-03*v_dconv^10) $(v_econv*6.681591e-04*v_dconv^6)
pair_coeff      2 12 $(v_econv*2.097184e-04*v_dconv^12) $(v_econv*5.231600e-04*v_dconv^10) $(v_econv*3.773634e-04*v_dconv^6)
pair_coeff      2 13 $(v_econv*8.755978e-05*v_dconv^12) $(v_econv*2.526531e-04*v_dconv^10) $(v_econv*2.438337e-04*v_dconv^6)
pair_coeff      2 14 $(v_econv*8.546044e-04*v_dconv^12) $(v_econv*1.686844e-03*v_dconv^10) $(v_econv*7.617703e-04*v_dconv^6)
pair_coeff      2 15 $(v_econv*1.321203e-03*v_dconv^12) $(v_econv*2.425188e-03*v_dconv^10) $(v_econv*9.471664e-04*v_dconv^6)
pair_coeff      2 16 $(v_econv*9.795752e-04*v_dconv^12) $(v_econv*1.890031e-03*v_dconv^10) $(v_econv*8.155683e-04*v_dconv^6)
pair_coeff      2 17 $(v_econv*1.827573e-01*v_dconv^12) $(v_econv*5.804902e-01*v_dconv^10) $(v_econv*6.788348e-01*v_dconv^6)
pair_coeff      2 18 $(v_econv*4.265667e-02*v_dconv^12) $(v_econv*1.847020e-01*v_dconv^10) $(v_econv*4.013929e-01*v_dconv^6)
pair_coeff      2 19 $(v_econv*1.809653e-03*v_dconv^12) $(v_econv*1.200229e-02*v_dconv^10) $(v_econv*6.119714e-02*v_dconv^6)
pair_coeff      2 20 $(v_econv*1.759069e-04*v_dconv^12) $(v_econv*4.518627e-04*v_dconv^10) $(v_econv*3.456073e-04*v_dconv^6)
pair_coeff      2 21 $(v_econv*1.104301e-04*v_dconv^12) $(v_econv*3.065563e-04*v_dconv^10) $(v_econv*2.738326e-04*v_dconv^6)
pair_coeff      2 22 $(v_econv*2.935906e-04*v_dconv^12) $(v_econv*6.924513e-04*v_dconv^10) $(v_econv*4.464908e-04*v_dconv^6)
pair_coeff      2 23 $(v_econv*5.762834e-04*v_dconv^12) $(v_econv*1.214696e-03*v_dconv^10) $(v_econv*6.255464e-04*v_dconv^6)
pair_coeff      2 24 $(v_econv*1.096445e-03*v_dconv^12) $(v_econv*2.076155e-03*v_dconv^10) $(v_econv*8.628492e-04*v_dconv^6)
pair_coeff      2 25 $(v_econv*1.133907e-03*v_dconv^12) $(v_econv*2.135103e-03*v_dconv^10) $(v_econv*8.774659e-04*v_dconv^6)
pair_coeff      2 26 $(v_econv*3.577483e-04*v_dconv^12) $(v_econv*8.164297e-04*v_dconv^10) $(v_econv*4.928676e-04*v_dconv^6)
pair_coeff      2 27 $(v_econv*1.160829e-03*v_dconv^12) $(v_econv*2.177264e-03*v_dconv^10) $(v_econv*8.878214e-04*v_dconv^6)
pair_coeff      2 28 $(v_econv*1.028569e-03*v_dconv^12) $(v_econv*1.968484e-03*v_dconv^10) $(v_econv*8.357150e-04*v_dconv^6)
pair_coeff      2 29 $(v_econv*8.505228e-04*v_dconv^12) $(v_econv*1.680128e-03*v_dconv^10) $(v_econv*7.599490e-04*v_dconv^6)
pair_coeff      2 30 $(v_econv*8.900970e-04*v_dconv^12) $(v_econv*1.745026e-03*v_dconv^10) $(v_econv*7.774279e-04*v_dconv^6)
pair_coeff      2 31 $(v_econv*9.477326e-04*v_dconv^12) $(v_econv*1.838692e-03*v_dconv^10) $(v_econv*8.022032e-04*v_dconv^6)
pair_coeff      2 32 $(v_econv*2.402784e-03*v_dconv^12) $(v_econv*3.992085e-03*v_dconv^10) $(v_econv*1.277317e-03*v_dconv^6)
pair_coeff      2 33 $(v_econv*1.083854e-03*v_dconv^12) $(v_econv*2.056269e-03*v_dconv^10) $(v_econv*8.578807e-04*v_dconv^6)
pair_coeff      2 34 $(v_econv*7.701500e-04*v_dconv^12) $(v_econv*1.546738e-03*v_dconv^10) $(v_econv*7.231512e-04*v_dconv^6)
pair_coeff      2 35 $(v_econv*2.094273e-04*v_dconv^12) $(v_econv*5.225547e-04*v_dconv^10) $(v_econv*3.771013e-04*v_dconv^6)
pair_coeff      2 36 $(v_econv*9.477326e-04*v_dconv^12) $(v_econv*1.838692e-03*v_dconv^10) $(v_econv*8.022032e-04*v_dconv^6)
pair_coeff      2 37 $(v_econv*1.890106e-03*v_dconv^12) $(v_econv*3.268455e-03*v_dconv^10) $(v_econv*1.132882e-03*v_dconv^6)
pair_coeff      2 38 $(v_econv*1.195636e-03*v_dconv^12) $(v_econv*2.231533e-03*v_dconv^10) $(v_econv*9.010337e-04*v_dconv^6)
pair_coeff      2 39 $(v_econv*1.096344e-04*v_dconv^12) $(v_econv*3.047145e-04*v_dconv^10) $(v_econv*2.728443e-04*v_dconv^6)
pair_coeff      2 40 $(v_econv*2.094273e-04*v_dconv^12) $(v_econv*5.225547e-04*v_dconv^10) $(v_econv*3.771013e-04*v_dconv^6)
pair_coeff      2 41 $(v_econv*1.674922e-05*v_dconv^12) $(v_econv*6.366972e-05*v_dconv^10) $(v_econv*1.066446e-04*v_dconv^6)
pair_coeff      2 42 $(v_econv*6.275895e-04*v_dconv^12) $(v_econv*1.304169e-03*v_dconv^10) $(v_econv*6.527987e-04*v_dconv^6)
pair_coeff      2 43 $(v_econv*1.697735e-03*v_dconv^12) $(v_econv*2.988792e-03*v_dconv^10) $(v_econv*1.073684e-03*v_dconv^6)
pair_coeff      2 44 $(v_econv*7.752603e-04*v_dconv^12) $(v_econv*1.555286e-03*v_dconv^10) $(v_econv*7.255464e-04*v_dconv^6)
pair_coeff      2 45 $(v_econv*1.160829e-03*v_dconv^12) $(v_econv*2.177264e-03*v_dconv^10) $(v_econv*8.878214e-04*v_dconv^6)
pair_coeff      2 46 $(v_econv*1.128640e-03*v_dconv^12) $(v_econv*2.126834e-03*v_dconv^10) $(v_econv*8.754255e-04*v_dconv^6)
pair_coeff      2 47 $(v_econv*7.525995e-04*v_dconv^12) $(v_econv*1.517309e-03*v_dconv^10) $(v_econv*7.148640e-04*v_dconv^6)
pair_coeff      2 48 $(v_econv*5.107216e-03*v_dconv^12) $(v_econv*7.483262e-03*v_dconv^10) $(v_econv*1.862231e-03*v_dconv^6)
pair_coeff      2 49 $(v_econv*7.345799e-04*v_dconv^12) $(v_econv*1.486974e-03*v_dconv^10) $(v_econv*7.062541e-04*v_dconv^6)
pair_coeff      2 50 $(v_econv*4.095059e-04*v_dconv^12) $(v_econv*9.137363e-04*v_dconv^10) $(v_econv*5.273167e-04*v_dconv^6)
pair_coeff      2 51 $(v_econv*8.156862e-05*v_dconv^12) $(v_econv*2.381625e-04*v_dconv^10) $(v_econv*2.353439e-04*v_dconv^6)
pair_coeff      2 52 $(v_econv*1.097642e-03*v_dconv^12) $(v_econv*2.078044e-03*v_dconv^10) $(v_econv*8.633201e-04*v_dconv^6)
pair_coeff      2 53 $(v_econv*6.079350e-05*v_dconv^12) $(v_econv*1.864168e-04*v_dconv^10) $(v_econv*2.031749e-04*v_dconv^6)
pair_coeff      2 54 $(v_econv*7.463777e-05*v_dconv^12) $(v_econv*2.211751e-04*v_dconv^10) $(v_econv*2.251235e-04*v_dconv^6)
pair_coeff      2 55 $(v_econv*6.053739e-05*v_dconv^12) $(v_econv*1.857621e-04*v_dconv^10) $(v_econv*2.027465e-04*v_dconv^6)
pair_coeff      2 56 $(v_econv*1.674922e-05*v_dconv^12) $(v_econv*6.366972e-05*v_dconv^10) $(v_econv*1.066446e-04*v_dconv^6)
pair_coeff      3 3 $(v_econv*4.425676e-05*v_dconv^12) $(v_econv*1.430827e-04*v_dconv^10) $(v_econv*1.733530e-04*v_dconv^6)
pair_coeff      3 4 $(v_econv*4.390530e-04*v_dconv^12) $(v_econv*9.683557e-04*v_dconv^10) $(v_econv*5.460092e-04*v_dconv^6)
pair_coeff      3 5 $(v_econv*2.917636e-05*v_dconv^12) $(v_econv*1.011106e-04*v_dconv^10) $(v_econv*1.407528e-04*v_dconv^6)
pair_coeff      3 6 $(v_econv*2.623583e-04*v_dconv^12) $(v_econv*6.304972e-04*v_dconv^10) $(v_econv*4.220743e-04*v_dconv^6)
pair_coeff      3 7 $(v_econv*5.772855e-05*v_dconv^12) $(v_econv*1.785513e-04*v_dconv^10) $(v_econv*1.979871e-04*v_dconv^6)
pair_coeff      3 8 $(v_econv*1.083793e-04*v_dconv^12) $(v_econv*3.018048e-04*v_dconv^10) $(v_econv*2.712781e-04*v_dconv^6)
pair_coeff      3 9 $(v_econv*1.183642e-05*v_dconv^12) $(v_econv*4.767466e-05*v_dconv^10) $(v_econv*8.965027e-05*v_dconv^6)
pair_coeff      3 10 $(v_econv*3.370561e-04*v_dconv^12) $(v_econv*7.768836e-04*v_dconv^10) $(v_econv*4.784015e-04*v_dconv^6)
pair_coeff      3 11 $(v_econv*3.613157e-04*v_dconv^12) $(v_econv*8.232085e-04*v_dconv^10) $(v_econv*4.953189e-04*v_dconv^6)
pair_coeff      3 12 $(v_econv*1.083793e-04*v_dconv^12) $(v_econv*3.018048e-04*v_dconv^10) $(v_econv*2.712781e-04*v_dconv^6)
pair_coeff      3 13 $(v_econv*4.298480e-05*v_dconv^12) $(v_econv*1.396475e-04*v_dconv^10) $(v_econv*1.708437e-04*v_dconv^6)
pair_coeff      3 14 $(v_econv*4.759206e-04*v_dconv^12) $(v_econv*1.035657e-03*v_dconv^10) $(v_econv*5.684715e-04*v_dconv^6)
pair_coeff      3 15 $(v_econv*7.516571e-04*v_dconv^12) $(v_econv*1.515725e-03*v_dconv^10) $(v_econv*7.144163e-04*v_dconv^6)
pair_coeff      3 16 $(v_econv*5.492280e-04*v_dconv^12) $(v_econv*1.166983e-03*v_dconv^10) $(v_econv*6.106857e-04*v_dconv^6)
pair_coeff      3 17 $(v_econv*3.254865e-02*v_dconv^12) $(v_econv*1.474325e-01*v_dconv^10) $(v_econv*3.506249e-01*v_dconv^6)
pair_coeff      3 18 $(v_econv*3.178522e-02*v_dconv^12) $(v_econv*1.432601e-01*v_dconv^10) $(v_econv*3.373297e-01*v_dconv^6)
pair_coeff      3 19 $(v_econv*1.624677e-01*v_dconv^12) $(v_econv*5.629307e-01*v_dconv^10) $(v_econv*7.833571e-01*v_dconv^6)
pair_coeff      3 20 $(v_econv*9.234412e-01*v_dconv^12) $(v_econv*2.417728e+00*v_dconv^10) $(v_econv*1.921025e+00*v_dconv^6)
pair_coeff      3 21 $(v_econv*5.497826e-05*v_dconv^12) $(v_econv*1.714339e-04*v_dconv^10) $(v_econv*1.932133e-04*v_dconv^6)
pair_coeff      3 22 $(v_econv*1.545943e-04*v_dconv^12) $(v_econv*4.057563e-04*v_dconv^10) $(v_econv*3.239949e-04*v_dconv^6)
pair_coeff      3 23 $(v_econv*2.162697e+00*v_dconv^12) $(v_econv*4.913558e+00*v_dconv^10) $(v_econv*2.939857e+00*v_dconv^6)
pair_coeff      3 24 $(v_econv*6.181700e-04*v_dconv^12) $(v_econv*1.287836e-03*v_dconv^10) $(v_econv*6.478813e-04*v_dconv^6)
pair_coeff      3 25 $(v_econv*6.403408e-04*v_dconv^12) $(v_econv*1.326213e-03*v_dconv^10) $(v_econv*6.593971e-04*v_dconv^6)
pair_coeff      3 26 $(v_econv*4.178454e-01*v_dconv^12) $(v_econv*1.248570e+00*v_dconv^10) $(v_econv*1.292219e+00*v_dconv^6)
pair_coeff      3 27 $(v_econv*6.562941e-04*v_dconv^12) $(v_econv*1.353691e-03*v_dconv^10) $(v_econv*6.675606e-04*v_dconv^6)
pair_coeff      3 28 $(v_econv*5.780869e-04*v_dconv^12) $(v_econv*1.217863e-03*v_dconv^10) $(v_econv*6.265244e-04*v_dconv^6)
pair_coeff      3 29 $(v_econv*4.735341e-04*v_dconv^12) $(v_econv*1.031328e-03*v_dconv^10) $(v_econv*5.670445e-04*v_dconv^6)
pair_coeff      3 30 $(v_econv*4.374125e+01*v_dconv^12) $(v_econv*6.567326e+01*v_dconv^10) $(v_econv*1.715981e+01*v_dconv^6)
pair_coeff      3 31 $(v_econv*5.305065e-04*v_dconv^12) $(v_econv*1.133739e-03*v_dconv^10) $(v_econv*6.001873e-04*v_dconv^6)
pair_coeff      3 32 $(v_econv*1.405867e-03*v_dconv^12) $(v_econv*2.554019e-03*v_dconv^10) $(v_econv*9.770426e-04*v_dconv^6)
pair_coeff      3 33 $(v_econv*6.107260e-04*v_dconv^12) $(v_econv*1.274900e-03*v_dconv^10) $(v_econv*6.439685e-04*v_dconv^6)
pair_coeff      3 34 $(v_econv*4.266534e-04*v_dconv^12) $(v_econv*9.455113e-04*v_dconv^10) $(v_econv*5.382438e-04*v_dconv^6)
pair_coeff      3 35 $(v_econv*1.082203e-04*v_dconv^12) $(v_econv*3.014358e-04*v_dconv^10) $(v_econv*2.710790e-04*v_dconv^6)
pair_coeff      3 36 $(v_econv*5.305065e-04*v_dconv^12) $(v_econv*1.133739e-03*v_dconv^10) $(v_econv*6.001873e-04*v_dconv^6)
pair_coeff      3 37 $(v_econv*1.093716e-03*v_dconv^12) $(v_econv*2.071847e-03*v_dconv^10) $(v_econv*8.617745e-04*v_dconv^6)
pair_coeff      3 38 $(v_econv*6.769443e-04*v_dconv^12) $(v_econv*1.389094e-03*v_dconv^10) $(v_econv*6.779816e-04*v_dconv^6)
pair_coeff      3 39 $(v_econv*5.455851e-05*v_dconv^12) $(v_econv*1.703424e-04*v_dconv^10) $(v_econv*1.924743e-04*v_dconv^6)
pair_coeff      3 40 $(v_econv*1.082203e-04*v_dconv^12) $(v_econv*3.014358e-04*v_dconv^10) $(v_econv*2.710790e-04*v_dconv^6)
pair_coeff      3 41 $(v_econv*7.374754e-06*v_dconv^12) $(v_econv*3.214107e-05*v_dconv^10) $(v_econv*7.076446e-05*v_dconv^6)
pair_coeff      3 42 $(v_econv*3.440727e-04*v_dconv^12) $(v_econv*7.903375e-04*v_dconv^10) $(v_econv*4.833554e-04*v_dconv^6)
pair_coeff      3 43 $(v_econv*9.774706e-04*v_dconv^12) $(v_econv*1.886646e-03*v_dconv^10) $(v_econv*8.146917e-04*v_dconv^6)
pair_coeff      3 44 $(v_econv*4.296277e-04*v_dconv^12) $(v_econv*9.510010e-04*v_dconv^10) $(v_econv*5.401167e-04*v_dconv^6)
pair_coeff      3 45 $(v_econv*5.835022e+01*v_dconv^12) $(v_econv*7.935384e+01*v_dconv^10) $(v_econv*1.701171e+01*v_dconv^6)
pair_coeff      3 46 $(v_econv*6.372215e-04*v_dconv^12) $(v_econv*1.320828e-03*v_dconv^10) $(v_econv*6.577891e-04*v_dconv^6)
pair_coeff      3 47 $(v_econv*4.164456e-04*v_dconv^12) $(v_econv*9.266220e-04*v_dconv^10) $(v_econv*5.317660e-04*v_dconv^6)
pair_coeff      3 48 $(v_econv*3.089520e-03*v_dconv^12) $(v_econv*4.922434e-03*v_dconv^10) $(v_econv*1.448395e-03*v_dconv^6)
pair_coeff      3 49 $(v_econv*4.059764e-04*v_dconv^12) $(v_econv*9.071687e-04*v_dconv^10) $(v_econv*5.250393e-04*v_dconv^6)
pair_coeff      3 50 $(v_econv*1.114309e-02*v_dconv^12) $(v_econv*5.836825e-02*v_dconv^10) $(v_econv*1.856300e-01*v_dconv^6)
pair_coeff      3 51 $(v_econv*3.987009e-05*v_dconv^12) $(v_econv*1.311626e-04*v_dconv^10) $(v_econv*1.645376e-04*v_dconv^6)
pair_coeff      3 52 $(v_econv*2.798748e+00*v_dconv^12) $(v_econv*6.644298e+00*v_dconv^10) $(v_econv*4.340591e+00*v_dconv^6)
pair_coeff      3 53 $(v_econv*2.917636e-05*v_dconv^12) $(v_econv*1.011106e-04*v_dconv^10) $(v_econv*1.407528e-04*v_dconv^6)
pair_coeff      3 54 $(v_econv*3.628299e-05*v_dconv^12) $(v_econv*1.212523e-04*v_dconv^10) $(v_econv*1.569614e-04*v_dconv^6)
pair_coeff      3 55 $(v_econv*2.904571e-05*v_dconv^12) $(v_econv*1.007331e-04*v_dconv^10) $(v_econv*1.404373e-04*v_dconv^6)
pair_coeff      3 56 $(v_econv*7.374754e-06*v_dconv^12) $(v_econv*3.214107e-05*v_dconv^10) $(v_econv*7.076446e-05*v_dconv^6)
pair_coeff      4 4 $(v_econv*3.011228e-03*v_dconv^12) $(v_econv*4.818263e-03*v_dconv^10) $(v_econv*1.429925e-03*v_dconv^6)
pair_coeff      4 5 $(v_econv*3.115423e-04*v_dconv^12) $(v_econv*7.275591e-04*v_dconv^10) $(v_econv*4.599387e-04*v_dconv^6)
pair_coeff      4 6 $(v_econv*1.944843e-03*v_dconv^12) $(v_econv*3.347145e-03*v_dconv^10) $(v_econv*1.149169e-03*v_dconv^6)
pair_coeff      4 7 $(v_econv*5.470460e-04*v_dconv^12) $(v_econv*1.163119e-03*v_dconv^10) $(v_econv*6.094715e-04*v_dconv^6)
pair_coeff      4 8 $(v_econv*9.243535e-04*v_dconv^12) $(v_econv*1.800815e-03*v_dconv^10) $(v_econv*7.922468e-04*v_dconv^6)
pair_coeff      4 9 $(v_econv*1.493062e-04*v_dconv^12) $(v_econv*3.941568e-04*v_dconv^10) $(v_econv*3.184054e-04*v_dconv^6)
pair_coeff      4 10 $(v_econv*2.404973e-03*v_dconv^12) $(v_econv*3.995115e-03*v_dconv^10) $(v_econv*1.277899e-03*v_dconv^6)
pair_coeff      4 11 $(v_econv*2.551213e-03*v_dconv^12) $(v_econv*4.196556e-03*v_dconv^10) $(v_econv*1.316179e-03*v_dconv^6)
pair_coeff      4 12 $(v_econv*9.243535e-04*v_dconv^12) $(v_econv*1.800815e-03*v_dconv^10) $(v_econv*7.922468e-04*v_dconv^6)
pair_coeff      4 13 $(v_econv*4.286065e-04*v_dconv^12) $(v_econv*9.491168e-04*v_dconv^10) $(v_econv*5.394744e-04*v_dconv^6)
pair_coeff      4 14 $(v_econv*3.225409e-03*v_dconv^12) $(v_econv*5.102208e-03*v_dconv^10) $(v_econv*1.479905e-03*v_dconv^6)
pair_coeff      4 15 $(v_econv*2.513363e-01*v_dconv^12) $(v_econv*7.366615e-01*v_dconv^10) $(v_econv*7.335380e-01*v_dconv^6)
pair_coeff      4 16 $(v_econv*5.173389e-02*v_dconv^12) $(v_econv*2.169177e-01*v_dconv^10) $(v_econv*4.420423e-01*v_dconv^6)
pair_coeff      4 17 $(v_econv*6.094674e-04*v_dconv^12) $(v_econv*4.622183e-03*v_dconv^10) $(v_econv*3.081553e-02*v_dconv^6)
pair_coeff      4 18 $(v_econv*2.653453e-01*v_dconv^12) $(v_econv*8.472115e-01*v_dconv^10) $(v_econv*1.001110e+00*v_dconv^6)
pair_coeff      4 19 $(v_econv*2.982254e-04*v_dconv^12) $(v_econv*7.015490e-04*v_dconv^10) $(v_econv*4.500013e-04*v_dconv^6)
pair_coeff      4 20 $(v_econv*7.914441e-04*v_dconv^12) $(v_econv*1.582296e-03*v_dconv^10) $(v_econv*7.330803e-04*v_dconv^6)
pair_coeff      4 21 $(v_econv*5.253552e-04*v_dconv^12) $(v_econv*1.124557e-03*v_dconv^10) $(v_econv*5.972663e-04*v_dconv^6)
pair_coeff      4 22 $(v_econv*1.244985e-03*v_dconv^12) $(v_econv*2.308026e-03*v_dconv^10) $(v_econv*9.194402e-04*v_dconv^6)
pair_coeff      4 23 $(v_econv*2.268046e-03*v_dconv^12) $(v_econv*3.804644e-03*v_dconv^10) $(v_econv*1.240987e-03*v_dconv^6)
pair_coeff      4 24 $(v_econv*4.032482e-03*v_dconv^12) $(v_econv*6.145838e-03*v_dconv^10) $(v_econv*1.654732e-03*v_dconv^6)
pair_coeff      4 25 $(v_econv*4.155893e-03*v_dconv^12) $(v_econv*6.302184e-03*v_dconv^10) $(v_econv*1.679862e-03*v_dconv^6)
pair_coeff      4 26 $(v_econv*1.483660e-03*v_dconv^12) $(v_econv*2.671259e-03*v_dconv^10) $(v_econv*1.003711e-03*v_dconv^6)
pair_coeff      4 27 $(v_econv*4.244345e-03*v_dconv^12) $(v_econv*6.413764e-03*v_dconv^10) $(v_econv*1.697645e-03*v_dconv^6)
pair_coeff      4 28 $(v_econv*3.807852e-03*v_dconv^12) $(v_econv*5.859188e-03*v_dconv^10) $(v_econv*1.607983e-03*v_dconv^6)
pair_coeff      4 29 $(v_econv*3.211615e-03*v_dconv^12) $(v_econv*5.084018e-03*v_dconv^10) $(v_econv*1.476737e-03*v_dconv^6)
pair_coeff      4 30 $(v_econv*3.345093e-03*v_dconv^12) $(v_econv*5.259498e-03*v_dconv^10) $(v_econv*1.507112e-03*v_dconv^6)
pair_coeff      4 31 $(v_econv*3.538482e-03*v_dconv^12) $(v_econv*5.511692e-03*v_dconv^10) $(v_econv*1.550065e-03*v_dconv^6)
pair_coeff      4 32 $(v_econv*8.170873e-03*v_dconv^12) $(v_econv*1.107035e-02*v_dconv^10) $(v_econv*2.355460e-03*v_dconv^6)
pair_coeff      4 33 $(v_econv*3.990915e-03*v_dconv^12) $(v_econv*6.093000e-03*v_dconv^10) $(v_econv*1.646181e-03*v_dconv^6)
pair_coeff      4 34 $(v_econv*2.938653e-03*v_dconv^12) $(v_econv*4.721293e-03*v_dconv^10) $(v_econv*1.412588e-03*v_dconv^6)
pair_coeff      4 35 $(v_econv*9.232194e-04*v_dconv^12) $(v_econv*1.798974e-03*v_dconv^10) $(v_econv*7.917606e-04*v_dconv^6)
pair_coeff      4 36 $(v_econv*3.538482e-03*v_dconv^12) $(v_econv*5.511692e-03*v_dconv^10) $(v_econv*1.550065e-03*v_dconv^6)
pair_coeff      4 37 $(v_econv*6.580187e-03*v_dconv^12) $(v_econv*9.242780e-03*v_dconv^10) $(v_econv*2.113784e-03*v_dconv^6)
pair_coeff      4 38 $(v_econv*4.358418e-03*v_dconv^12) $(v_econv*6.557095e-03*v_dconv^10) $(v_econv*1.720307e-03*v_dconv^6)
pair_coeff      4 39 $(v_econv*5.220299e-04*v_dconv^12) $(v_econv*1.118623e-03*v_dconv^10) $(v_econv*5.953730e-04*v_dconv^6)
pair_coeff      4 40 $(v_econv*9.232194e-04*v_dconv^12) $(v_econv*1.798974e-03*v_dconv^10) $(v_econv*7.917606e-04*v_dconv^6)
pair_coeff      4 41 $(v_econv*1.019436e-04*v_dconv^12) $(v_econv*2.867944e-04*v_dconv^10) $(v_econv*2.631004e-04*v_dconv^6)
pair_coeff      4 42 $(v_econv*2.447415e-03*v_dconv^12) $(v_econv*4.053783e-03*v_dconv^10) $(v_econv*1.289126e-03*v_dconv^6)
pair_coeff      4 43 $(v_econv*5.973696e-03*v_dconv^12) $(v_econv*8.527205e-03*v_dconv^10) $(v_econv*2.014017e-03*v_dconv^6)
pair_coeff      4 44 $(v_econv*2.956087e-03*v_dconv^12) $(v_econv*4.744624e-03*v_dconv^10) $(v_econv*1.416772e-03*v_dconv^6)
pair_coeff      4 45 $(v_econv*4.244345e-03*v_dconv^12) $(v_econv*6.413764e-03*v_dconv^10) $(v_econv*1.697645e-03*v_dconv^6)
pair_coeff      4 46 $(v_econv*4.138565e-03*v_dconv^12) $(v_econv*6.280278e-03*v_dconv^10) $(v_econv*1.676356e-03*v_dconv^6)
pair_coeff      4 47 $(v_econv*2.878690e-03*v_dconv^12) $(v_econv*4.640875e-03*v_dconv^10) $(v_econv*1.398102e-03*v_dconv^6)
pair_coeff      4 48 $(v_econv*1.617596e-02*v_dconv^12) $(v_econv*1.955822e-02*v_dconv^10) $(v_econv*3.314183e-03*v_dconv^6)
pair_coeff      4 49 $(v_econv*2.816983e-03*v_dconv^12) $(v_econv*4.557825e-03*v_dconv^10) $(v_econv*1.383036e-03*v_dconv^6)
pair_coeff      4 50 $(v_econv*3.921369e-01*v_dconv^12) $(v_econv*1.316797e+00*v_dconv^10) $(v_econv*1.721116e+00*v_dconv^6)
pair_coeff      4 51 $(v_econv*1.893825e-03*v_dconv^12) $(v_econv*1.188972e-02*v_dconv^10) $(v_econv*5.432057e-02*v_dconv^6)
pair_coeff      4 52 $(v_econv*2.011697e-01*v_dconv^12) $(v_econv*7.550160e-01*v_dconv^10) $(v_econv*1.232743e+00*v_dconv^6)
pair_coeff      4 53 $(v_econv*3.115423e-04*v_dconv^12) $(v_econv*7.275591e-04*v_dconv^10) $(v_econv*4.599387e-04*v_dconv^6)
pair_coeff      4 54 $(v_econv*3.727002e-04*v_dconv^12) $(v_econv*8.447673e-04*v_dconv^10) $(v_econv*5.030617e-04*v_dconv^6)
pair_coeff      4 55 $(v_econv*3.103966e-04*v_dconv^12) $(v_econv*7.253288e-04*v_dconv^10) $(v_econv*4.590922e-04*v_dconv^6)
pair_coeff      4 56 $(v_econv*1.019436e-04*v_dconv^12) $(v_econv*2.867944e-04*v_dconv^10) $(v_econv*2.631004e-04*v_dconv^6)
pair_coeff      5 5 $(v_econv*1.894843e-05*v_dconv^12) $(v_econv*7.056378e-05*v_dconv^10) $(v_econv*1.134300e-04*v_dconv^6)
pair_coeff      5 6 $(v_econv*1.833428e-04*v_dconv^12) $(v_econv*4.677251e-04*v_dconv^10) $(v_econv*3.528364e-04*v_dconv^6)
pair_coeff      5 7 $(v_econv*3.841257e-05*v_dconv^12) $(v_econv*1.271545e-04*v_dconv^10) $(v_econv*1.615021e-04*v_dconv^6)
pair_coeff      5 8 $(v_econv*7.365856e-05*v_dconv^12) $(v_econv*2.187544e-04*v_dconv^10) $(v_econv*2.236418e-04*v_dconv^6)
pair_coeff      5 9 $(v_econv*7.427420e-06*v_dconv^12) $(v_econv*3.233223e-05*v_dconv^10) $(v_econv*7.101669e-05*v_dconv^6)
pair_coeff      5 10 $(v_econv*2.373200e-04*v_dconv^12) $(v_econv*5.799395e-04*v_dconv^10) $(v_econv*4.014289e-04*v_dconv^6)
pair_coeff      5 11 $(v_econv*2.549246e-04*v_dconv^12) $(v_econv*6.155745e-04*v_dconv^10) $(v_econv*4.160518e-04*v_dconv^6)
pair_coeff      5 12 $(v_econv*7.365856e-05*v_dconv^12) $(v_econv*2.187544e-04*v_dconv^10) $(v_econv*2.236418e-04*v_dconv^6)
pair_coeff      5 13 $(v_econv*2.830860e-05*v_dconv^12) $(v_econv*9.859830e-05*v_dconv^10) $(v_econv*1.386439e-04*v_dconv^6)
pair_coeff      5 14 $(v_econv*3.384906e-04*v_dconv^12) $(v_econv*7.796379e-04*v_dconv^10) $(v_econv*4.794185e-04*v_dconv^6)
pair_coeff      5 15 $(v_econv*3.117029e-02*v_dconv^12) $(v_econv*1.422110e-01*v_dconv^10) $(v_econv*3.431205e-01*v_dconv^6)
pair_coeff      5 16 $(v_econv*3.331674e-02*v_dconv^12) $(v_econv*1.583593e-01*v_dconv^10) $(v_econv*4.147008e-01*v_dconv^6)
pair_coeff      5 17 $(v_econv*1.007431e-01*v_dconv^12) $(v_econv*3.780029e-01*v_dconv^10) $(v_econv*6.168562e-01*v_dconv^6)
pair_coeff      5 18 $(v_econv*2.975586e-04*v_dconv^12) $(v_econv*7.002416e-04*v_dconv^10) $(v_econv*4.494980e-04*v_dconv^6)
pair_coeff      5 19 $(v_econv*1.793097e-05*v_dconv^12) $(v_econv*6.739183e-05*v_dconv^10) $(v_econv*1.103426e-04*v_dconv^6)
pair_coeff      5 20 $(v_econv*6.079350e-05*v_dconv^12) $(v_econv*1.864168e-04*v_dconv^10) $(v_econv*2.031749e-04*v_dconv^6)
pair_coeff      5 21 $(v_econv*3.652079e-05*v_dconv^12) $(v_econv*1.219142e-04*v_dconv^10) $(v_econv*1.574750e-04*v_dconv^6)